Route #1: 136 116 93 5 107 1 111 72 60 79 98 31 6 102 53 110 114 43 8 86 41 2 17 78
Route #2: 65 61 64 44 74 11 100 81 47 96 62 104 132 23 21 33 125 123 137 55 139 95 57 73
Route #3: 126 13 127 84 68
Route #4: 115 124 70 40 59 135 58 67 46 101 66 20 52 88 51 49 50 9 109
Route #5: 130 71 99 24 106 27 15 141 140 69 131 42 29 39 80 119 22 77 122 37 14 82 142 35 25
Route #6: 36 16 32 7 19 97 120 85 91 56 83 28 133 18 90 45 89 12 54 118 128
Route #7: 4 48 87 30 121 34 138 105 129 76 3 94 75 26 112 63 113 10 103 38 134 92 108 117
Cost 15700.000000